ID_groupA
44614
4563
74284
74284
74284
82625
82625
44614
74284
44614
44614
44614
74284
44614
4563
4563
74284
74284
82625
74284
4563
4563
4563
44614
4563
74284
44614
4563
74284
74284
82625
74284
4563
4563
4563
44614
4563
74284
4563
74284
74284
74284
74284
74284
15340
4563
44614
15340
74284
74284
74284
74284
74284
74284
74284
4563
74284
74284
74284
74284
82625
74284
74284
74284
4563
44614
74284
74284
74284
82625
74284
74284
4563
44614
82625
74284
82625
74284
74284
4563
44614
82625
74284
82625
74284
4563
44614
74284
74284
74284
4563
44614
4563
74284
74284
44614
4563
4563
4563
44614
44614
44614
74284
44614
74284
